TCS_Benchmarks/redos_fix/regexlib1_output_distinct_121_120_0_0.smt2
(set-logic QF_S)
(declare-const x String)
(assert (str.in.re x (re.inter (re.* (re.union (re.range "\u{00}" "\u{09}") (re.range "\u{0b}" "\u{0c}") (re.range "\u{0e}" "\u{84}") (re.range "\u{86}" "\u{ff}")) )  (re.++ (re.* (re.union (re.range "\u{00}" "\u{09}") (re.range "\u{0b}" "\u{0c}") (re.range "\u{0e}" "\u{84}") (re.range "\u{86}" "\u{ff}")) ) (re.++  (re.++  (str.to.re "\u{22}") (re.++ (re.opt  (re.++ (re.opt (re.union (re.range "\u{09}" "\u{0d}") (re.range "\u{20}" "\u{20}") (re.range "\u{85}" "\u{85}") (re.range "\u{a0}" "\u{a0}")) ) (re.++  (str.to.re "\u{74}") (re.++  (str.to.re "\u{61}") (re.++  (str.to.re "\u{72}") (re.++  (str.to.re "\u{67}") (re.++  (str.to.re "\u{65}") (re.++  (str.to.re "\u{74}") (re.++  (str.to.re "\u{3d}") (re.++  (str.to.re "\u{22}") (re.++  (re.++  (str.to.re "\u{5f}")  (re.union  (re.++  (str.to.re "\u{62}") (re.++  (str.to.re "\u{6c}") (re.++  (str.to.re "\u{61}") (re.++  (str.to.re "\u{6e}")  (str.to.re "\u{6b}"))))) (re.union  (re.++  (str.to.re "\u{6e}") (re.++  (str.to.re "\u{65}")  (str.to.re "\u{77}"))) (re.union  (re.++  (str.to.re "\u{70}") (re.++  (str.to.re "\u{61}") (re.++  (str.to.re "\u{72}") (re.++  (str.to.re "\u{65}") (re.++  (str.to.re "\u{6e}")  (str.to.re "\u{74}")))))) (re.union  (re.++  (str.to.re "\u{73}") (re.++  (str.to.re "\u{65}") (re.++  (str.to.re "\u{6c}")  (str.to.re "\u{66}"))))  (re.++  (str.to.re "\u{74}") (re.++  (str.to.re "\u{6f}")  (str.to.re "\u{70}"))))))))  (str.to.re "\u{22}"))))))))))) ) (re.++ (re.opt (re.union (re.range "\u{09}" "\u{0d}") (re.range "\u{20}" "\u{20}") (re.range "\u{85}" "\u{85}") (re.range "\u{a0}" "\u{a0}")) ) (re.++  (str.to.re "\u{63}") (re.++  (str.to.re "\u{6c}") (re.++  (str.to.re "\u{61}") (re.++  (str.to.re "\u{73}") (re.++  (str.to.re "\u{73}") (re.++  (str.to.re "\u{3d}")  (str.to.re "\u{22}")))))))))) (re.* (re.union (re.range "\u{00}" "\u{09}") (re.range "\u{0b}" "\u{0c}") (re.range "\u{0e}" "\u{84}") (re.range "\u{86}" "\u{ff}")) ))) (re.* (re.union (re.range "\u{00}" "\u{09}") (re.range "\u{0b}" "\u{0c}") (re.range "\u{0e}" "\u{84}") (re.range "\u{86}" "\u{ff}")) ) )))
(check-sat)
(get-model)