TCS_Benchmarks/redos_fix/regexlib1_output_distinct_121_120_0_0.txt
.*
(.*)("(\s?target="(_(blank|new|parent|self|top))")?\s?class=")(.*)
.*